============================[ Problem Statistics ]=============================
|                                                                             |
|  Number of variables:      35987452                                         |
|  Number of clauses:        89664159                                         |
|  Parse time:                  18.83 s                                       |
|  Eliminated clauses:         935.09 Mb                                      |
|  Simplification time:        119.63 s                                       |
|                                                                             |
============================[ Search Statistics ]==============================
| Conflicts |          ORIGINAL         |          LEARNT          | Progress |
|           |    Vars  Clauses Literals |    Limit  Clauses Lit/Cl |          |
===============================================================================
|       100 | 3937231 18701048 59402356 |  6857050      100      9 | 15.181 % |
|       250 | 3937231 18701048 59402356 |  7542756      250      7 | 15.181 % |
|       475 | 3937231 18701048 59402356 |  8297031      475      7 | 15.181 % |
|       812 | 3937231 18701048 59402356 |  9126734      812      6 | 15.181 % |
|      1318 | 3937231 18701048 59402356 | 10039408     1318      7 | 15.181 % |
|      2077 | 3937231 18701048 59402356 | 11043349     2077      7 | 15.181 % |
|      3216 | 3937231 18701048 59402356 | 12147684     3216     11 | 15.181 % |
|      4924 | 3937231 18701048 59402356 | 13362452     4924     10 | 15.181 % |
|      7486 | 3937231 18701048 59402356 | 14698697     7486     12 | 15.181 % |
|     11330 | 3937231 18701048 59402356 | 16168567    11330     11 | 15.181 % |
|     17096 | 3937231 18701048 59402356 | 17785424    17096      9 | 15.181 % |
|     25745 | 3937231 18701048 59402356 | 19563966    25745      9 | 15.181 % |
|     38719 | 3937231 18701048 59402356 | 21520363    38719      9 | 15.181 % |
===============================================================================
restarts              : 168
conflicts             : 54414          (36 /sec)
decisions             : 744156224      (0.00 % random) (494388 /sec)
propagations          : 7502250069     (4984197 /sec)
conflict literals     : 514487         (2.94 % deleted)
Memory used           : 6134.71 MB
CPU time              : 1505.21 s

INDETERMINATE
File benchmarkfile13.cnf timed out after 2880 seconds.
